c FILE: i160-034

c SOURCE: From steinlib

c DESCRIPTION: Steinlib instance with 160 nodes and 320 edges.

p edge 160 320
e 1 17
e 1 22
e 1 51
e 1 65
e 1 72
e 1 83
e 1 109
e 1 158
e 2 122
e 2 158
e 3 23
e 3 26
e 3 51
e 3 86
e 3 88
e 3 142
e 3 157
e 4 66
e 4 90
e 4 91
e 4 108
e 5 45
e 5 69
e 5 76
e 5 121
e 5 140
e 5 152
e 6 30
e 6 56
e 7 49
e 7 51
e 7 116
e 8 60
e 8 78
e 8 107
e 8 124
e 9 59
e 9 79
e 9 89
e 9 96
e 9 157
e 10 51
e 10 159
e 11 29
e 11 77
e 11 104
e 11 126
e 12 132
e 13 48
e 13 66
e 13 97
e 13 132
e 14 141
e 15 36
e 15 77
e 15 103
e 15 145
e 16 39
e 16 114
e 17 31
e 17 60
e 17 74
e 17 95
e 17 112
e 17 131
e 18 44
e 18 82
e 18 109
e 19 82
e 20 31
e 20 52
e 20 114
e 20 117
e 21 35
e 21 94
e 21 101
e 21 122
e 21 129
e 21 132
e 22 108
e 23 31
e 23 47
e 24 31
e 24 59
e 25 90
e 25 146
e 26 43
e 26 79
e 26 89
e 26 95
e 26 142
e 27 30
e 27 50
e 27 68
e 28 138
e 28 152
e 29 108
e 29 125
e 30 43
e 30 117
e 30 157
e 31 36
e 31 57
e 31 77
e 31 80
e 31 92
e 31 96
e 31 116
e 31 120
e 31 128
e 31 132
e 31 137
e 31 139
e 32 73
e 32 91
e 33 89
e 34 93
e 34 96
e 34 120
e 35 126
e 35 140
e 36 139
e 37 52
e 37 64
e 37 78
e 37 95
e 37 98
e 38 62
e 38 67
e 38 69
e 38 85
e 39 58
e 39 73
e 39 109
e 39 110
e 39 158
e 40 57
e 40 120
e 40 150
e 41 66
e 41 74
e 41 98
e 42 78
e 42 95
e 42 108
e 42 118
e 42 141
e 42 143
e 43 62
e 43 95
e 43 112
e 43 121
e 43 140
e 44 62
e 44 114
e 46 116
e 47 85
e 47 99
e 47 133
e 47 139
e 47 155
e 47 158
e 48 70
e 48 88
e 48 139
e 48 144
e 49 81
e 49 116
e 49 158
e 50 52
e 50 69
e 50 88
e 50 139
e 51 75
e 52 89
e 53 55
e 53 106
e 53 135
e 54 88
e 54 131
e 54 160
e 55 88
e 55 97
e 55 159
e 56 91
e 57 132
e 57 159
e 58 77
e 58 87
e 58 119
e 58 123
e 59 110
e 59 140
e 60 61
e 60 148
e 61 115
e 61 159
e 62 70
e 62 91
e 63 66
e 63 87
e 65 90
e 65 92
e 65 116
e 66 69
e 66 136
e 67 103
e 67 150
e 68 132
e 69 88
e 69 91
e 69 128
e 70 91
e 70 102
e 70 109
e 70 141
e 70 147
e 71 93
e 71 112
e 71 140
e 71 149
e 72 76
e 72 130
e 73 83
e 73 97
e 73 122
e 73 130
e 73 154
e 74 113
e 76 79
e 76 122
e 76 142
e 76 159
e 77 84
e 77 106
e 77 136
e 77 156
e 79 94
e 80 95
e 80 114
e 80 138
e 81 97
e 81 116
e 81 145
e 81 146
e 81 147
e 82 87
e 82 152
e 84 120
e 84 149
e 85 93
e 87 148
e 88 109
e 89 99
e 89 100
e 89 112
e 89 120
e 89 137
e 89 153
e 90 100
e 90 152
e 90 159
e 92 107
e 92 125
e 92 139
e 92 151
e 93 156
e 94 102
e 94 147
e 95 149
e 96 111
e 96 120
e 96 123
e 96 127
e 97 99
e 97 126
e 97 133
e 98 101
e 98 134
e 99 101
e 99 130
e 101 154
e 103 104
e 104 107
e 104 153
e 105 112
e 105 118
e 105 148
e 106 128
e 108 139
e 109 131
e 109 151
e 111 112
e 111 144
e 111 159
e 112 116
e 115 131
e 115 135
e 115 153
e 116 127
e 116 137
e 118 136
e 119 135
e 119 142
e 120 152
e 122 142
e 124 128
e 124 143
e 125 152
e 128 131
e 128 153
e 129 143
e 132 144
e 135 140
e 135 144
e 136 143
e 137 152
e 139 153
e 139 155
e 158 160
